tsp/concorde/model.tsp
NAME: model
TYPE: TSP
DIMENSION: 36
EDGE_WEIGHT_TYPE: EXPLICIT
EDGE_WEIGHT_FORMAT: LOWER_DIAG_ROW
EDGE_WEIGHT_SECTION
 0
 147.101 0
 99999 155.714 0
 99999 99999 157.987 0
 99999 99999 99999 158.123 0
 99999 99999 99999 99999 159.815 0
 148.794 211.556 99999 99999 99999 99999 0
 211.556 153.029 222.059 99999 99999 99999 154.332 0
 99999 222.059 159.562 226.19 99999 99999 99999 158.123 0
 99999 99999 226.19 158.524 222.059 99999 99999 99999 161.867 0
 99999 99999 99999 222.059 156.01 217.351 99999 99999 99999 155.863 0
 99999 99999 99999 99999 217.351 150.922 99999 99999 99999 99999 148.59 0
 99999 99999 99999 99999 99999 99999 158.123 222.059 99999 99999 99999 99999 0
 99999 99999 99999 99999 99999 99999 222.059 155.863 222.059 99999 99999 99999 157.019 0
 99999 99999 99999 99999 99999 99999 99999 222.059 160.922 230.045 99999 99999 99999 155.714 0
 99999 99999 99999 99999 99999 99999 99999 99999 230.045 160.922 222.059 99999 99999 99999 161.867 0
 99999 99999 99999 99999 99999 99999 99999 99999 99999 222.059 152.349 211.556 99999 99999 99999 158.257 0
 99999 99999 99999 99999 99999 99999 99999 99999 99999 99999 211.556 152.349 99999 99999 99999 99999 152.349 0
 99999 99999 99999 99999 99999 99999 99999 99999 99999 99999 99999 99999 157.019 222.059 99999 99999 99999 99999 0
 99999 99999 99999 99999 99999 99999 99999 99999 99999 99999 99999 99999 222.059 157.019 222.059 99999 99999 99999 157.019 0
 99999 99999 99999 99999 99999 99999 99999 99999 99999 99999 99999 99999 99999 222.059 158.391 226.367 99999 99999 99999 158.257 0
 99999 99999 99999 99999 99999 99999 99999 99999 99999 99999 99999 99999 99999 99999 226.367 159.562 222.059 99999 99999 99999 157.987 0
 99999 99999 99999 99999 99999 99999 99999 99999 99999 99999 99999 99999 99999 99999 99999 222.059 154.173 217.12 99999 99999 99999 155.863 0
 99999 99999 99999 99999 99999 99999 99999 99999 99999 99999 99999 99999 99999 99999 99999 99999 217.12 155.414 99999 99999 99999 99999 154.646 0
 99999 99999 99999 99999 99999 99999 99999 99999 99999 99999 99999 99999 99999 99999 99999 99999 99999 99999 155.714 222.059 99999 99999 99999 99999 0
 99999 99999 99999 99999 99999 99999 99999 99999 99999 99999 99999 99999 99999 99999 99999 99999 99999 99999 222.059 158.257 222.258 99999 99999 99999 157.577 0
 99999 99999 99999 99999 99999 99999 99999 99999 99999 99999 99999 99999 99999 99999 99999 99999 99999 99999 99999 222.258 155.863 222.059 99999 99999 99999 155.863 0
 99999 99999 99999 99999 99999 99999 99999 99999 99999 99999 99999 99999 99999 99999 99999 99999 99999 99999 99999 99999 222.059 158.123 222.059 99999 99999 99999 157.019 0
 99999 99999 99999 99999 99999 99999 99999 99999 99999 99999 99999 99999 99999 99999 99999 99999 99999 99999 99999 99999 99999 222.059 155.714 222.059 99999 99999 99999 158.257 0
 99999 99999 99999 99999 99999 99999 99999 99999 99999 99999 99999 99999 99999 99999 99999 99999 99999 99999 99999 99999 99999 99999 222.059 158.123 99999 99999 99999 99999 160.436 0
 99999 99999 99999 99999 99999 99999 99999 99999 99999 99999 99999 99999 99999 99999 99999 99999 99999 99999 99999 99999 99999 99999 99999 99999 159.689 222.059 99999 99999 99999 99999 0
 99999 99999 99999 99999 99999 99999 99999 99999 99999 99999 99999 99999 99999 99999 99999 99999 99999 99999 99999 99999 99999 99999 99999 99999 222.059 156.592 222.059 99999 99999 99999 154.173 0
 99999 99999 99999 99999 99999 99999 99999 99999 99999 99999 99999 99999 99999 99999 99999 99999 99999 99999 99999 99999 99999 99999 99999 99999 99999 222.059 157.019 222.059 99999 99999 99999 158.123 0
 99999 99999 99999 99999 99999 99999 99999 99999 99999 99999 99999 99999 99999 99999 99999 99999 99999 99999 99999 99999 99999 99999 99999 99999 99999 99999 222.059 157.019 222.059 99999 99999 99999 157.019 0
 99999 99999 99999 99999 99999 99999 99999 99999 99999 99999 99999 99999 99999 99999 99999 99999 99999 99999 99999 99999 99999 99999 99999 99999 99999 99999 99999 222.059 159.435 230.045 99999 99999 99999 155.714 0
 99999 99999 99999 99999 99999 99999 99999 99999 99999 99999 99999 99999 99999 99999 99999 99999 99999 99999 99999 99999 99999 99999 99999 99999 99999 99999 99999 99999 230.045 163.981 99999 99999 99999 99999 163.002 0
EOF
