tsp/concorde/model.sol
36
0 3 9 17 19 6 25 2 33 24 
20 29 18 7 15 31 5 16 10 1 
27 28 11 21 8 12 34 14 26 23 
13 22 30 4 35 32 
